\ Model p-center
\ LP format - for model browsing. Use MPS format to capture full model detail.
Minimize
  L
Subject To
 epigraph[0]: 536 x[0,1] + 650 x[0,2] + 520 x[0,3] + 305 x[0,4]
   + 400 x[0,5] + 721 x[0,6] + 235 x[0,7] + 284 x[0,8] + 954 x[0,9] - L
   <= 0
 epigraph[1]: 947 x[1,0] + 605 x[1,2] + 528 x[1,3] + 227 x[1,4]
   + 326 x[1,5] + 320 x[1,6] + 568 x[1,7] + 740 x[1,8] + 605 x[1,9] - L
   <= 0
 epigraph[2]: 894 x[2,0] + 262 x[2,1] + 1065 x[2,3] + 990 x[2,4]
   + 667 x[2,5] + 537 x[2,6] + 636 x[2,7] + 644 x[2,8] + 466 x[2,9] - L
   <= 0
 epigraph[3]: 506 x[3,0] + 347 x[3,1] + 1094 x[3,2] + 900 x[3,4]
   + 865 x[3,5] + 393 x[3,6] + 457 x[3,7] + 1083 x[3,8] + 604 x[3,9] - L
   <= 0
 epigraph[4]: 360 x[4,0] + 932 x[4,1] + 479 x[4,2] + 897 x[4,3]
   + 683 x[4,5] + 762 x[4,6] + 597 x[4,7] + 451 x[4,8] + 1073 x[4,9] - L
   <= 0
 epigraph[5]: 413 x[5,0] + 838 x[5,1] + 315 x[5,2] + 744 x[5,3]
   + 270 x[5,4] + 878 x[5,6] + 969 x[5,7] + 899 x[5,8] + 321 x[5,9] - L
   <= 0
 epigraph[6]: 692 x[6,0] + 364 x[6,1] + 520 x[6,2] + 708 x[6,3]
   + 724 x[6,4] + 691 x[6,5] + 648 x[6,7] + 346 x[6,8] + 211 x[6,9] - L
   <= 0
 epigraph[7]: 110 x[7,0] + 395 x[7,1] + 195 x[7,2] + 315 x[7,3]
   + 571 x[7,4] + 945 x[7,5] + 149 x[7,6] + 743 x[7,8] + 970 x[7,9] - L
   <= 0
 epigraph[8]: 842 x[8,0] + 899 x[8,1] + 330 x[8,2] + 188 x[8,3]
   + 457 x[8,4] + 152 x[8,5] + 144 x[8,6] + 768 x[8,7] + 976 x[8,9] - L
   <= 0
 epigraph[9]: 720 x[9,0] + 715 x[9,1] + 548 x[9,2] + 525 x[9,3]
   + 608 x[9,4] + 142 x[9,5] + 550 x[9,6] + 878 x[9,7] + 603 x[9,8] - L
   <= 0
 p: y[0] + y[1] + y[2] + y[3] + y[4] + y[5] + y[6] + y[7] + y[8] + y[9]
   = 3
 x<y[0,0]: x[0,0] - y[0] <= 0
 x<y[0,1]: x[0,1] - y[1] <= 0
 x<y[0,2]: x[0,2] - y[2] <= 0
 x<y[0,3]: x[0,3] - y[3] <= 0
 x<y[0,4]: x[0,4] - y[4] <= 0
 x<y[0,5]: x[0,5] - y[5] <= 0
 x<y[0,6]: x[0,6] - y[6] <= 0
 x<y[0,7]: x[0,7] - y[7] <= 0
 x<y[0,8]: x[0,8] - y[8] <= 0
 x<y[0,9]: x[0,9] - y[9] <= 0
 x<y[1,0]: x[1,0] - y[0] <= 0
 x<y[1,1]: x[1,1] - y[1] <= 0
 x<y[1,2]: x[1,2] - y[2] <= 0
 x<y[1,3]: x[1,3] - y[3] <= 0
 x<y[1,4]: x[1,4] - y[4] <= 0
 x<y[1,5]: x[1,5] - y[5] <= 0
 x<y[1,6]: x[1,6] - y[6] <= 0
 x<y[1,7]: x[1,7] - y[7] <= 0
 x<y[1,8]: x[1,8] - y[8] <= 0
 x<y[1,9]: x[1,9] - y[9] <= 0
 x<y[2,0]: x[2,0] - y[0] <= 0
 x<y[2,1]: x[2,1] - y[1] <= 0
 x<y[2,2]: x[2,2] - y[2] <= 0
 x<y[2,3]: x[2,3] - y[3] <= 0
 x<y[2,4]: x[2,4] - y[4] <= 0
 x<y[2,5]: x[2,5] - y[5] <= 0
 x<y[2,6]: x[2,6] - y[6] <= 0
 x<y[2,7]: x[2,7] - y[7] <= 0
 x<y[2,8]: x[2,8] - y[8] <= 0
 x<y[2,9]: x[2,9] - y[9] <= 0
 x<y[3,0]: x[3,0] - y[0] <= 0
 x<y[3,1]: x[3,1] - y[1] <= 0
 x<y[3,2]: x[3,2] - y[2] <= 0
 x<y[3,3]: x[3,3] - y[3] <= 0
 x<y[3,4]: x[3,4] - y[4] <= 0
 x<y[3,5]: x[3,5] - y[5] <= 0
 x<y[3,6]: x[3,6] - y[6] <= 0
 x<y[3,7]: x[3,7] - y[7] <= 0
 x<y[3,8]: x[3,8] - y[8] <= 0
 x<y[3,9]: x[3,9] - y[9] <= 0
 x<y[4,0]: x[4,0] - y[0] <= 0
 x<y[4,1]: x[4,1] - y[1] <= 0
 x<y[4,2]: x[4,2] - y[2] <= 0
 x<y[4,3]: x[4,3] - y[3] <= 0
 x<y[4,4]: x[4,4] - y[4] <= 0
 x<y[4,5]: x[4,5] - y[5] <= 0
 x<y[4,6]: x[4,6] - y[6] <= 0
 x<y[4,7]: x[4,7] - y[7] <= 0
 x<y[4,8]: x[4,8] - y[8] <= 0
 x<y[4,9]: x[4,9] - y[9] <= 0
 x<y[5,0]: x[5,0] - y[0] <= 0
 x<y[5,1]: x[5,1] - y[1] <= 0
 x<y[5,2]: x[5,2] - y[2] <= 0
 x<y[5,3]: x[5,3] - y[3] <= 0
 x<y[5,4]: x[5,4] - y[4] <= 0
 x<y[5,5]: x[5,5] - y[5] <= 0
 x<y[5,6]: x[5,6] - y[6] <= 0
 x<y[5,7]: x[5,7] - y[7] <= 0
 x<y[5,8]: x[5,8] - y[8] <= 0
 x<y[5,9]: x[5,9] - y[9] <= 0
 x<y[6,0]: x[6,0] - y[0] <= 0
 x<y[6,1]: x[6,1] - y[1] <= 0
 x<y[6,2]: x[6,2] - y[2] <= 0
 x<y[6,3]: x[6,3] - y[3] <= 0
 x<y[6,4]: x[6,4] - y[4] <= 0
 x<y[6,5]: x[6,5] - y[5] <= 0
 x<y[6,6]: x[6,6] - y[6] <= 0
 x<y[6,7]: x[6,7] - y[7] <= 0
 x<y[6,8]: x[6,8] - y[8] <= 0
 x<y[6,9]: x[6,9] - y[9] <= 0
 x<y[7,0]: x[7,0] - y[0] <= 0
 x<y[7,1]: x[7,1] - y[1] <= 0
 x<y[7,2]: x[7,2] - y[2] <= 0
 x<y[7,3]: x[7,3] - y[3] <= 0
 x<y[7,4]: x[7,4] - y[4] <= 0
 x<y[7,5]: x[7,5] - y[5] <= 0
 x<y[7,6]: x[7,6] - y[6] <= 0
 x<y[7,7]: x[7,7] - y[7] <= 0
 x<y[7,8]: x[7,8] - y[8] <= 0
 x<y[7,9]: x[7,9] - y[9] <= 0
 x<y[8,0]: x[8,0] - y[0] <= 0
 x<y[8,1]: x[8,1] - y[1] <= 0
 x<y[8,2]: x[8,2] - y[2] <= 0
 x<y[8,3]: x[8,3] - y[3] <= 0
 x<y[8,4]: x[8,4] - y[4] <= 0
 x<y[8,5]: x[8,5] - y[5] <= 0
 x<y[8,6]: x[8,6] - y[6] <= 0
 x<y[8,7]: x[8,7] - y[7] <= 0
 x<y[8,8]: x[8,8] - y[8] <= 0
 x<y[8,9]: x[8,9] - y[9] <= 0
 x<y[9,0]: x[9,0] - y[0] <= 0
 x<y[9,1]: x[9,1] - y[1] <= 0
 x<y[9,2]: x[9,2] - y[2] <= 0
 x<y[9,3]: x[9,3] - y[3] <= 0
 x<y[9,4]: x[9,4] - y[4] <= 0
 x<y[9,5]: x[9,5] - y[5] <= 0
 x<y[9,6]: x[9,6] - y[6] <= 0
 x<y[9,7]: x[9,7] - y[7] <= 0
 x<y[9,8]: x[9,8] - y[8] <= 0
 x<y[9,9]: x[9,9] - y[9] <= 0
 sumx[0]: x[0,0] + x[0,1] + x[0,2] + x[0,3] + x[0,4] + x[0,5] + x[0,6]
   + x[0,7] + x[0,8] + x[0,9] = 1
 sumx[1]: x[1,0] + x[1,1] + x[1,2] + x[1,3] + x[1,4] + x[1,5] + x[1,6]
   + x[1,7] + x[1,8] + x[1,9] = 1
 sumx[2]: x[2,0] + x[2,1] + x[2,2] + x[2,3] + x[2,4] + x[2,5] + x[2,6]
   + x[2,7] + x[2,8] + x[2,9] = 1
 sumx[3]: x[3,0] + x[3,1] + x[3,2] + x[3,3] + x[3,4] + x[3,5] + x[3,6]
   + x[3,7] + x[3,8] + x[3,9] = 1
 sumx[4]: x[4,0] + x[4,1] + x[4,2] + x[4,3] + x[4,4] + x[4,5] + x[4,6]
   + x[4,7] + x[4,8] + x[4,9] = 1
 sumx[5]: x[5,0] + x[5,1] + x[5,2] + x[5,3] + x[5,4] + x[5,5] + x[5,6]
   + x[5,7] + x[5,8] + x[5,9] = 1
 sumx[6]: x[6,0] + x[6,1] + x[6,2] + x[6,3] + x[6,4] + x[6,5] + x[6,6]
   + x[6,7] + x[6,8] + x[6,9] = 1
 sumx[7]: x[7,0] + x[7,1] + x[7,2] + x[7,3] + x[7,4] + x[7,5] + x[7,6]
   + x[7,7] + x[7,8] + x[7,9] = 1
 sumx[8]: x[8,0] + x[8,1] + x[8,2] + x[8,3] + x[8,4] + x[8,5] + x[8,6]
   + x[8,7] + x[8,8] + x[8,9] = 1
 sumx[9]: x[9,0] + x[9,1] + x[9,2] + x[9,3] + x[9,4] + x[9,5] + x[9,6]
   + x[9,7] + x[9,8] + x[9,9] = 1
Bounds
Binaries
 y[0] y[1] y[2] y[3] y[4] y[5] y[6] y[7] y[8] y[9]
End
